4942
4985
4991
5084
5030
4970
4985
4992
4879
4989
5040
5004
5089
5024
4956
4972
5006
5047
5012
4974
4972
5045
4996
5030
5021
4947
4945
4957
5008
5020
5001
5023
5001
4980
5045
4999
4954
4999
5014
5040
5042
5016
5077
5013
5095
5009
4925
5028
5004
4988
4995
4966
4976
4950
4969
5002
5057
5059
5032
5001
5011
5017
5038
5029
4995
4910
5086
5005
4930
4983
5087
5014
5030
5068
4959
5094
5038
5014
4951
4903
4968
4995
4900
5097
5025
5010
5022
5020
4979
4920
5084
4992
4962
5006
5031
5009
4912
4962
4948
4960
